CMPL model generation - running

CMPL version: 1.11.0
Authors: Thomas Schleiff, Mike Steglich
Distributed under the GPLv3 

create model instance ...
write model instance ...
CMPL model generation - finished

Solver - running


Welcome to IBM(R) ILOG(R) CPLEX(R) Interactive Optimizer 12.7.1.0
  with Simplex, Mixed Integer & Barrier Optimizers
5725-A06 5725-A29 5724-Y48 5724-Y49 5724-Y54 5724-Y55 5655-Y21
Copyright IBM Corp. 1988, 2017.  All Rights Reserved.

Type 'help' for a list of available commands.
Type 'help' followed by a command name for more
information on commands.

CPLEX> Specified objective sense: MINIMIZE
Selected objective  name:  line[1]
Selected RHS        name:  RHS
Selected bound      name:  BOUND
Problem '/tmp/cmpl.T24775.mps' read.
Read time = 0.08 sec. (8.20 ticks)
CPLEX> CPXPARAM_Read_APIEncoding                        "UTF-8"
Tried aggregator 3 times.
MIP Presolve eliminated 18935 rows and 30108 columns.
MIP Presolve modified 340 coefficients.
Aggregator did 874 substitutions.
Reduced MIP has 2546 rows, 3611 columns, and 10529 nonzeros.
Reduced MIP has 3443 binaries, 0 generals, 0 SOSs, and 0 indicators.
Presolve time = 0.08 sec. (41.15 ticks)
Found incumbent of value 2513.278858 after 0.18 sec. (74.41 ticks)
Probing time = 0.02 sec. (2.73 ticks)
Tried aggregator 1 time.
MIP Presolve eliminated 0 rows and 3 columns.
Reduced MIP has 2546 rows, 3608 columns, and 10523 nonzeros.
Reduced MIP has 3608 binaries, 0 generals, 0 SOSs, and 0 indicators.
Presolve time = 0.02 sec. (8.76 ticks)
Probing time = 0.01 sec. (2.79 ticks)
Clique table members: 3868.
MIP emphasis: balance optimality and feasibility.
MIP search method: dynamic search.
Parallel mode: none, using 1 thread.
Root relaxation solution time = 0.02 sec. (10.61 ticks)

        Nodes                                         Cuts/
   Node  Left     Objective  IInf  Best Integer    Best Bound    ItCnt     Gap

*     0+    0                         2513.2789       -3.9497           100.16%
*     0     0      integral     0      689.5349      689.5349      601    0.00%
Elapsed time = 0.27 sec. (106.73 ticks, tree = 0.00 MB, solutions = 2)

Root node processing (before b&c):
  Real time             =    0.28 sec. (107.95 ticks)
Sequential b&c:
  Real time             =    0.00 sec. (0.00 ticks)
                          ------------
Total (root+branch&cut) =    0.28 sec. (107.95 ticks)

Solution pool: 2 solutions saved.

MIP - Integer optimal solution:  Objective =  6.8953485300e+02
Solution time =    0.28 sec.  Iterations = 601  Nodes = 0
Deterministic time = 108.05 ticks  (392.39 ticks/sec)

CPLEX> Incumbent solution written to file '/tmp/cmpl.T24775.gsol'.
CPLEX> 
CMPL: Time used for model generation: 1 seconds
CMPL: Time used for solving the model: 1 seconds


Solution written to ASCII file: results/output_generated_conf_0.9/2015-12-07-4/fair-nonlinear.sol

Solver - finished
